INPUT_PARAMETERS
#Parameters (General)
pseudo_dir       ./
orbital_dir      ./
ecutwfc          120
scf_thr          1e-6
basis_type       lcao
calculation      get_hs
nspin            4
lspinorb         1
nbspline         12
out_mat_hs2      4
